(set-option :produce-models true)
  
(declare-const a Int)
(declare-const b Int)
(declare-const c Int)
(declare-const d Real)
(declare-const e Real)
(assert (> a (+ b 2)))
(assert (= a (+ (* 2 c) 10)))
(assert (<= (+ c b) 1000))
(assert (>= d e))
(check-sat)
(get-model)
